solution status: optimal solution found
objective value:                     161217.644234674
d11(0,0)                                            1 	(obj:0)
d11(1,1)                                            1 	(obj:0)
d11(1,2)                                            1 	(obj:0)
d11(1,3)                                            1 	(obj:0)
d11(2,4)                                            1 	(obj:0)
d11(2,5)                                            1 	(obj:0)
d11(2,7)                                            1 	(obj:0)
d11(2,8)                                            1 	(obj:0)
d11(2,10)                                           1 	(obj:0)
d11(2,11)                                           1 	(obj:0)
d11(2,12)                                           1 	(obj:0)
d11(3,13)                                           1 	(obj:0)
d11(3,14)                                           1 	(obj:0)
d11(3,15)                                           1 	(obj:0)
d11(3,16)                                           1 	(obj:0)
d11(3,17)                                           1 	(obj:0)
d11(3,18)                                           1 	(obj:0)
d11(3,19)                                           1 	(obj:0)
d11(3,20)                                           1 	(obj:0)
d11(3,21)                                           1 	(obj:0)
d11(3,22)                                           1 	(obj:0)
d11(3,23)                                           1 	(obj:0)
d11(3,24)                                           1 	(obj:0)
d11(3,25)                                           1 	(obj:0)
d11(3,26)                                           1 	(obj:0)
d11(3,28)                                           1 	(obj:0)
d11(3,29)                                           1 	(obj:0)
d11(3,30)                                           1 	(obj:0)
d11(3,31)                                           1 	(obj:0)
d11(3,32)                                           1 	(obj:0)
d11(3,33)                                           1 	(obj:0)
d11(3,34)                                           1 	(obj:0)
d11(3,35)                                           1 	(obj:0)
d11(3,36)                                           1 	(obj:0)
d11(3,37)                                           1 	(obj:0)
d11(3,38)                                           1 	(obj:0)
d11(3,39)                                           1 	(obj:0)
d21(3,13)                                           1 	(obj:0)
d21(3,14)                                           1 	(obj:0)
d21(3,15)                                           1 	(obj:0)
d21(3,16)                                           1 	(obj:0)
d21(3,17)                                           1 	(obj:0)
d21(3,19)                                           1 	(obj:0)
d21(3,22)                                           1 	(obj:0)
d21(3,23)                                           1 	(obj:0)
d21(3,25)                                           1 	(obj:0)
d21(3,31)                                           1 	(obj:0)
STE(1,1)                             7958.63825333345 	(obj:0)
STE(0,0)                                        14175 	(obj:0)
STE(1,2)                             8955.40425666677 	(obj:0)
STE(1,3)                             10172.8564600001 	(obj:0)
STE(2,4)                             4610.42004666679 	(obj:0)
STE(2,5)                             5607.18605000008 	(obj:0)
STE(2,6)                             6824.63825333345 	(obj:0)
STE(2,7)                              5607.1860500001 	(obj:0)
STE(2,8)                             6603.95205333339 	(obj:0)
STE(2,9)                             7821.40425666677 	(obj:0)
STE(2,10)                            6824.63825333348 	(obj:0)
STE(2,11)                            7821.40425666677 	(obj:0)
STE(2,12)                            9038.85646000015 	(obj:0)
STE(3,13)                             1262.2018400001 	(obj:0)
STE(3,14)                            2258.96784333339 	(obj:0)
STE(3,15)                            3476.42004666685 	(obj:0)
STE(3,16)                            2258.96784333339 	(obj:0)
STE(3,17)                            3255.73384666668 	(obj:0)
STE(3,18)                            4473.18605000008 	(obj:0)
STE(3,19)                            3476.42004666677 	(obj:0)
STE(3,20)                            4473.18605000006 	(obj:0)
STE(3,21)                            5690.63825333345 	(obj:0)
STE(3,22)                            2258.96784333342 	(obj:0)
STE(3,23)                            3255.73384666671 	(obj:0)
STE(3,24)                             4473.1860500001 	(obj:0)
STE(3,25)                            3255.73384666671 	(obj:0)
STE(3,26)                                  4252.49985 	(obj:0)
STE(3,27)                            5469.95205333339 	(obj:0)
STE(3,28)                            4473.18605000009 	(obj:0)
STE(3,29)                            5469.95205333338 	(obj:0)
STE(3,30)                            6687.40425666677 	(obj:0)
STE(3,31)                             3476.4200466668 	(obj:0)
STE(3,32)                            4473.18605000009 	(obj:0)
STE(3,33)                            5690.63825333348 	(obj:0)
STE(3,34)                            4473.18605000009 	(obj:0)
STE(3,35)                            5469.95205333338 	(obj:0)
STE(3,36)                            6687.40425666677 	(obj:0)
STE(3,37)                            5690.63825333347 	(obj:0)
STE(3,38)                            6687.40425666676 	(obj:0)
STE(3,39)                            7904.85646000021 	(obj:0)
y1(3,23)                             1095.70698300005 	(obj:0)
y1(3,25)                             1992.79638600002 	(obj:0)
y1(3,26)                             1095.70698300005 	(obj:0)
y1(3,28)                             1992.79638600002 	(obj:0)
y1(3,29)                             1095.70698300005 	(obj:0)
y1(3,31)                             1992.79638600002 	(obj:0)
y1(3,32)                             1095.70698300005 	(obj:0)
y1(3,34)                             1992.79638600002 	(obj:0)
y1(3,35)                             1095.70698300005 	(obj:0)
y1(3,37)                             1992.79638600002 	(obj:0)
y1(3,38)                             1095.70698300005 	(obj:0)
BG(3)                                1204.56299667524 	(obj:10)
AVE(1)                               3199.95851117552 	(obj:0)
WB(2)                                3265.15049132519 	(obj:0)
AVE(2)                               3265.15049132519 	(obj:0)
AVE(3)                               3291.35535332476 	(obj:0)
WG(1)                                3199.95851117552 	(obj:10)
WG(3)                                3291.35535332476 	(obj:10)
BG(1)                                3929.96921229374 	(obj:10)
BG(2)                                      4495.91835 	(obj:10)
y1(1,1)                              4574.12557199989 	(obj:0)
y1(1,2)                              3677.03616899991 	(obj:0)
y1(1,3)                              2581.32918599987 	(obj:0)
y1(2,4)                                   1992.796386 	(obj:0)
y1(2,5)                              1095.70698300004 	(obj:0)
y1(2,7)                                   1992.796386 	(obj:0)
y1(2,8)                              1095.70698300004 	(obj:0)
y1(2,10)                                  1992.796386 	(obj:0)
y1(2,11)                             1095.70698300004 	(obj:0)
y1(3,13)                             1992.79638600002 	(obj:0)
y1(3,14)                             1095.70698300005 	(obj:0)
y1(3,16)                             1992.79638600002 	(obj:0)
y1(3,17)                             1095.70698300005 	(obj:0)
y1(3,19)                             1992.79638600002 	(obj:0)
y1(3,20)                             1095.70698300005 	(obj:0)
y1(3,22)                             1992.79638600002 	(obj:0)
